(set-logic QF_S)
(declare-fun var0 () String)
(assert (RegexIn var0 (RegexConcat (RegexPlus (RegexStar (RegexStar (RegexPlus (RegexStar (RegexUnion (RegexUnion (RegexUnion (RegexUnion (Str2Reg "000") (Str2Reg "11")) (RegexUnion (Str2Reg "22") (Str2Reg "33"))) (RegexUnion (RegexUnion (Str2Reg "44") (Str2Reg "555")) (RegexUnion (Str2Reg "666") (Str2Reg "7")))) (RegexUnion (RegexStar (RegexUnion (Str2Reg "88") (Str2Reg "9"))) (RegexStar (RegexPlus (Str2Reg "aa")))))))))) (RegexStar (RegexUnion (RegexPlus (RegexUnion (RegexPlus (RegexUnion (RegexPlus (RegexStar (RegexPlus (Str2Reg "bbb")))) (RegexPlus (RegexUnion (RegexUnion (Str2Reg "c") (Str2Reg "dd")) (RegexUnion (Str2Reg "eee") (Str2Reg "f")))))) (RegexPlus (RegexPlus (RegexPlus (RegexStar (RegexUnion (Str2Reg "gg") (Str2Reg "hhh")))))))) (RegexPlus (RegexUnion (RegexUnion (RegexPlus (RegexStar (RegexPlus (RegexUnion (Str2Reg "i") (Str2Reg "j"))))) (RegexPlus (RegexPlus (RegexPlus (RegexUnion (Str2Reg "kk") (Str2Reg "l")))))) (RegexUnion (RegexStar (RegexStar (RegexUnion (RegexPlus (Str2Reg "m")) (RegexPlus (Str2Reg "nnn"))))) (RegexStar (RegexUnion (RegexUnion (RegexPlus (Str2Reg "ooo")) (RegexPlus (Str2Reg "ppp"))) (RegexUnion (RegexPlus (Str2Reg "q")) (RegexPlus (Str2Reg "r")))))))))))))
(assert (<= 15 (Length var0)))
(check-sat)